
Gurobi 9.5.1 (linux64, Python) logging started Wed Apr 20 15:32:27 2022

Set parameter Username
Set parameter LogFile to value "gurobi.log"
Academic license - for non-commercial use only - expires 2023-04-15
Warning: Numeric variable name in LP file ('5') - often the result
         of a constant term in the left-hand side of a constraint.

Read LP format model from file ../../../A_BC.lp
Reading time = 0.00 seconds
: 24 rows, 25 columns, 128 nonzeros
Gurobi Optimizer version 9.5.1 build v9.5.1rc2 (linux64)
Thread count: 6 physical cores, 12 logical processors, using up to 12 threads
Optimize a model with 24 rows, 25 columns and 128 nonzeros
Model fingerprint: 0xf6886ab9
Variable types: 1 continuous, 24 integer (8 binary)
Coefficient statistics:
  Matrix range     [1e+00, 5e+00]
  Objective range  [1e+00, 2e+00]
  Bounds range     [1e+00, 1e+00]
  RHS range        [1e+00, 1e+00]
Found heuristic solution: objective 10.0000000
Presolve removed 17 rows and 12 columns
Presolve time: 0.00s
Presolved: 7 rows, 13 columns, 55 nonzeros
Variable types: 0 continuous, 13 integer (0 binary)
Found heuristic solution: objective 6.0000000

Root relaxation: objective 3.000000e+00, 4 iterations, 0.00 seconds (0.00 work units)

    Nodes    |    Current Node    |     Objective Bounds      |     Work
 Expl Unexpl |  Obj  Depth IntInf | Incumbent    BestBd   Gap | It/Node Time

     0     0    3.00000    0    2    6.00000    3.00000  50.0%     -    0s

Cutting planes:
  Gomory: 1
  MIR: 5

Explored 1 nodes (4 simplex iterations) in 0.01 seconds (0.00 work units)
Thread count was 12 (of 12 available processors)

Solution count 2: 6 10 

Optimal solution found (tolerance 1.00e-04)
Best objective 6.000000000000e+00, best bound 6.000000000000e+00, gap 0.0000%

Gurobi 9.5.1 (linux64, Python) logging started Wed Apr 20 16:19:10 2022

Set parameter Username
Set parameter LogFile to value "gurobi.log"
Academic license - for non-commercial use only - expires 2023-04-15

Gurobi 9.5.1 (linux64, Python) logging started Wed Apr 20 16:22:27 2022

Set parameter Username
Set parameter LogFile to value "gurobi.log"
Academic license - for non-commercial use only - expires 2023-04-15

Gurobi 9.5.1 (linux64, Python) logging started Wed Apr 20 16:28:29 2022

Set parameter Username
Set parameter LogFile to value "gurobi.log"
Academic license - for non-commercial use only - expires 2023-04-15

Gurobi 9.5.1 (linux64, Python) logging started Wed Apr 20 16:30:25 2022

Set parameter Username
Set parameter LogFile to value "gurobi.log"
Academic license - for non-commercial use only - expires 2023-04-15

Gurobi 9.5.1 (linux64, Python) logging started Wed Apr 20 17:23:07 2022

Set parameter Username
Set parameter LogFile to value "gurobi.log"
Academic license - for non-commercial use only - expires 2023-04-15
